5 5
7 2 3 13 4 13 2 5 10 3 10 3 1 11 4 4 2 5 3 4 8 5 8 3 2 4 3 16 1 19 4 7 2 2 4 1 14 3 4 4 18 5 12 4 3 17 2 11 4 7 5 11
6 2 3 16 4 16 3 1 11 4 19 2 14 4 3 18 5 14 1 5 2 2 5 3 2 4 13 1 11 2 14 5 17 2 2 17 4 13 2 4 10 1 6
8 4 5 20 2 17 3 18 1 8 4 5 4 3 6 4 14 1 3 5 4 13 5 11 2 14 3 19 1 7 5 1 12 5 11 4 16 2 3 3 13 4 4 8 3 4 5 16 1 19 4 2 3 1 7 3 5 5 20 2 3 6 2 14 2 1 16 5 2
5 5 2 8 1 3 3 10 5 2 4 3 2 3 18 5 15 3 1 7 4 5 5 8 1 3 10 2 3 19 4 9
6 5 2 7 5 19 4 6 3 10 1 15 1 5 16 5 1 12 2 10 5 6 4 8 3 18 1 5 14 1 2 19 4 1 18 4 5 2 7 5 3